c Standarized MaxSat Instance
c{
c "sha1sum": "7a83dc14e29a3bb8ca0283eda544c92730a25ee2",
c "nvars": 140,
c "ncls": 1260,
c "total_lits": 2520,
c "nhards": 0,
c "nhard_nlits": 0,
c "nhard_len_stats":
c    { "min": 0,
c      "max": 0,
c      "ave": 0.0000,
c      "stddev": 0.0000 },
c "nsofts": 1260,
c "nsoft_nlits": 2520,
c "nsoft_len_stats":
c    { "min": 2,
c      "max": 2,
c      "ave": 2.0000,
c      "stddev": 0.0000 },
c "nsoft_wts": 1,
c "soft_wt_stats":
c    { "min": 1,
c      "max": 1,
c      "ave": 1.0000,
c      "stddev": 0.0000 }
c}
c------------------------------------------------------------
c strEdges: 189  randomEdges: 441 
c degrees:  2  3 
c girth: 10 max: 8.032766  
c Hgirth mixed MAXCUT instance
c generated from an undirected graph
c to solve unweighted MaxCut
1 95 22 0
1 -95 -22 0
1 95 138 0
1 -95 -138 0
1 95 4 0
1 -95 -4 0
1 12 66 0
1 -12 -66 0
1 12 105 0
1 -12 -105 0
1 12 140 0
1 -12 -140 0
1 123 105 0
1 -123 -105 0
1 123 82 0
1 -123 -82 0
1 123 88 0
1 -123 -88 0
1 40 48 0
1 -40 -48 0
1 40 17 0
1 -40 -17 0
1 44 122 0
1 -44 -122 0
1 44 80 0
1 -44 -80 0
1 129 81 0
1 -129 -81 0
1 129 6 0
1 -129 -6 0
1 29 104 0
1 -29 -104 0
1 29 97 0
1 -29 -97 0
1 29 50 0
1 -29 -50 0
1 114 35 0
1 -114 -35 0
1 114 50 0
1 -114 -50 0
1 86 4 0
1 -86 -4 0
1 86 47 0
1 -86 -47 0
1 128 24 0
1 -128 -24 0
1 128 81 0
1 -128 -81 0
1 128 2 0
1 -128 -2 0
1 68 121 0
1 -68 -121 0
1 68 119 0
1 -68 -119 0
1 68 135 0
1 -68 -135 0
1 28 98 0
1 -28 -98 0
1 28 109 0
1 -28 -109 0
1 28 47 0
1 -28 -47 0
1 111 82 0
1 -111 -82 0
1 111 22 0
1 -111 -22 0
1 111 121 0
1 -111 -121 0
1 115 70 0
1 -115 -70 0
1 115 113 0
1 -115 -113 0
1 115 121 0
1 -115 -121 0
1 96 18 0
1 -96 -18 0
1 96 105 0
1 -96 -105 0
1 25 43 0
1 -25 -43 0
1 25 8 0
1 -25 -8 0
1 25 130 0
1 -25 -130 0
1 125 14 0
1 -125 -14 0
1 125 37 0
1 -125 -37 0
1 125 11 0
1 -125 -11 0
1 7 101 0
1 -7 -101 0
1 7 2 0
1 -7 -2 0
1 7 54 0
1 -7 -54 0
1 117 91 0
1 -117 -91 0
1 117 83 0
1 -117 -83 0
1 27 32 0
1 -27 -32 0
1 27 139 0
1 -27 -139 0
1 27 35 0
1 -27 -35 0
1 127 135 0
1 -127 -135 0
1 127 14 0
1 -127 -14 0
1 106 74 0
1 -106 -74 0
1 106 131 0
1 -106 -131 0
1 23 132 0
1 -23 -132 0
1 23 14 0
1 -23 -14 0
1 94 140 0
1 -94 -140 0
1 94 20 0
1 -94 -20 0
1 71 59 0
1 -71 -59 0
1 71 80 0
1 -71 -80 0
1 71 103 0
1 -71 -103 0
1 90 58 0
1 -90 -58 0
1 90 18 0
1 -90 -18 0
1 1 138 0
1 -1 -138 0
1 1 54 0
1 -1 -54 0
1 1 136 0
1 -1 -136 0
1 78 47 0
1 -78 -47 0
1 78 112 0
1 -78 -112 0
1 93 107 0
1 -93 -107 0
1 93 81 0
1 -93 -81 0
1 93 98 0
1 -93 -98 0
1 41 118 0
1 -41 -118 0
1 41 46 0
1 -41 -46 0
1 41 56 0
1 -41 -56 0
1 63 84 0
1 -63 -84 0
1 63 59 0
1 -63 -59 0
1 63 140 0
1 -63 -140 0
1 72 97 0
1 -72 -97 0
1 72 73 0
1 -72 -73 0
1 72 43 0
1 -72 -43 0
1 76 131 0
1 -76 -131 0
1 76 16 0
1 -76 -16 0
1 76 91 0
1 -76 -91 0
1 49 11 0
1 -49 -11 0
1 49 85 0
1 -49 -85 0
1 49 56 0
1 -49 -56 0
1 108 34 0
1 -108 -34 0
1 108 136 0
1 -108 -136 0
1 26 109 0
1 -26 -109 0
1 26 85 0
1 -26 -85 0
1 26 74 0
1 -26 -74 0
1 21 46 0
1 -21 -46 0
1 21 79 0
1 -21 -79 0
1 21 83 0
1 -21 -83 0
1 60 75 0
1 -60 -75 0
1 60 91 0
1 -60 -91 0
1 60 119 0
1 -60 -119 0
1 13 30 0
1 -13 -30 0
1 13 112 0
1 -13 -112 0
1 13 130 0
1 -13 -130 0
1 57 80 0
1 -57 -80 0
1 57 9 0
1 -57 -9 0
1 102 15 0
1 -102 -15 0
1 102 122 0
1 -102 -122 0
1 65 20 0
1 -65 -20 0
1 65 104 0
1 -65 -104 0
1 64 16 0
1 -64 -16 0
1 64 18 0
1 -64 -18 0
1 51 79 0
1 -51 -79 0
1 51 97 0
1 -51 -97 0
1 77 112 0
1 -77 -112 0
1 77 19 0
1 -77 -19 0
1 77 75 0
1 -77 -75 0
1 62 54 0
1 -62 -54 0
1 62 48 0
1 -62 -48 0
1 62 32 0
1 -62 -32 0
1 3 9 0
1 -3 -9 0
1 3 79 0
1 -3 -79 0
1 3 4 0
1 -3 -4 0
1 42 110 0
1 -42 -110 0
1 42 70 0
1 -42 -70 0
1 42 118 0
1 -42 -118 0
1 120 83 0
1 -120 -83 0
1 120 132 0
1 -120 -132 0
1 120 17 0
1 -120 -17 0
1 31 8 0
1 -31 -8 0
1 31 116 0
1 -31 -116 0
1 31 103 0
1 -31 -103 0
1 67 37 0
1 -67 -37 0
1 67 33 0
1 -67 -33 0
1 67 9 0
1 -67 -9 0
1 92 36 0
1 -92 -36 0
1 92 43 0
1 -92 -43 0
1 92 69 0
1 -92 -69 0
1 61 130 0
1 -61 -130 0
1 61 24 0
1 -61 -24 0
1 61 22 0
1 -61 -22 0
1 100 17 0
1 -100 -17 0
1 100 107 0
1 -100 -107 0
1 100 15 0
1 -100 -15 0
1 99 50 0
1 -99 -50 0
1 99 30 0
1 -99 -30 0
1 99 70 0
1 -99 -70 0
1 45 88 0
1 -45 -88 0
1 45 30 0
1 -45 -30 0
1 45 15 0
1 -45 -15 0
1 10 139 0
1 -10 -139 0
1 10 98 0
1 -10 -98 0
1 10 36 0
1 -10 -36 0
1 5 119 0
1 -5 -119 0
1 5 122 0
1 -5 -122 0
1 5 34 0
1 -5 -34 0
1 126 103 0
1 -126 -103 0
1 126 131 0
1 -126 -131 0
1 126 107 0
1 -126 -107 0
1 53 73 0
1 -53 -73 0
1 53 6 0
1 -53 -6 0
1 53 37 0
1 -53 -37 0
1 52 33 0
1 -52 -33 0
1 52 84 0
1 -52 -84 0
1 52 32 0
1 -52 -32 0
1 89 113 0
1 -89 -113 0
1 89 101 0
1 -89 -101 0
1 89 74 0
1 -89 -74 0
1 137 85 0
1 -137 -85 0
1 137 20 0
1 -137 -20 0
1 137 48 0
1 -137 -48 0
1 38 6 0
1 -38 -6 0
1 38 16 0
1 -38 -16 0
1 38 118 0
1 -38 -118 0
1 124 19 0
1 -124 -19 0
1 124 110 0
1 -124 -110 0
1 124 84 0
1 -124 -84 0
1 39 69 0
1 -39 -69 0
1 39 132 0
1 -39 -132 0
1 39 66 0
1 -39 -66 0
1 55 2 0
1 -55 -2 0
1 55 104 0
1 -55 -104 0
1 134 136 0
1 -134 -136 0
1 134 11 0
1 -134 -11 0
1 134 58 0
1 -134 -58 0
1 133 116 0
1 -133 -116 0
1 133 35 0
1 -133 -35 0
1 133 135 0
1 -133 -135 0
1 87 56 0
1 -87 -56 0
1 87 24 0
1 -87 -24 0
1 1 126 0
1 -1 -126 0
1 93 62 0
1 -93 -62 0
1 38 69 0
1 -38 -69 0
1 55 56 0
1 -55 -56 0
1 51 32 0
1 -51 -32 0
1 64 112 0
1 -64 -112 0
1 125 105 0
1 -125 -105 0
1 94 71 0
1 -94 -71 0
1 99 98 0
1 -99 -98 0
1 124 48 0
1 -124 -48 0
1 128 112 0
1 -128 -112 0
1 3 134 0
1 -3 -134 0
1 24 132 0
1 -24 -132 0
1 15 85 0
1 -15 -85 0
1 40 64 0
1 -40 -64 0
1 107 11 0
1 -107 -11 0
1 58 110 0
1 -58 -110 0
1 39 8 0
1 -39 -8 0
1 102 58 0
1 -102 -58 0
1 71 118 0
1 -71 -118 0
1 128 47 0
1 -128 -47 0
1 13 88 0
1 -13 -88 0
1 71 105 0
1 -71 -105 0
1 73 85 0
1 -73 -85 0
1 114 97 0
1 -114 -97 0
1 87 101 0
1 -87 -101 0
1 89 75 0
1 -89 -75 0
1 102 104 0
1 -102 -104 0
1 29 71 0
1 -29 -71 0
1 129 110 0
1 -129 -110 0
1 71 91 0
1 -71 -91 0
1 53 22 0
1 -53 -22 0
1 140 6 0
1 -140 -6 0
1 77 85 0
1 -77 -85 0
1 3 55 0
1 -3 -55 0
1 30 20 0
1 -30 -20 0
1 120 22 0
1 -120 -22 0
1 10 53 0
1 -10 -53 0
1 40 50 0
1 -40 -50 0
1 10 91 0
1 -10 -91 0
1 93 21 0
1 -93 -21 0
1 86 132 0
1 -86 -132 0
1 60 56 0
1 -60 -56 0
1 26 139 0
1 -26 -139 0
1 28 113 0
1 -28 -113 0
1 79 112 0
1 -79 -112 0
1 51 109 0
1 -51 -109 0
1 128 63 0
1 -128 -63 0
1 138 85 0
1 -138 -85 0
1 95 120 0
1 -95 -120 0
1 120 48 0
1 -120 -48 0
1 78 48 0
1 -78 -48 0
1 89 15 0
1 -89 -15 0
1 111 88 0
1 -111 -88 0
1 124 70 0
1 -124 -70 0
1 12 2 0
1 -12 -2 0
1 102 64 0
1 -102 -64 0
1 89 35 0
1 -89 -35 0
1 22 11 0
1 -22 -11 0
1 25 138 0
1 -25 -138 0
1 12 15 0
1 -12 -15 0
1 114 120 0
1 -114 -120 0
1 80 54 0
1 -80 -54 0
1 89 82 0
1 -89 -82 0
1 40 116 0
1 -40 -116 0
1 70 36 0
1 -70 -36 0
1 86 73 0
1 -86 -73 0
1 100 4 0
1 -100 -4 0
1 90 87 0
1 -90 -87 0
1 102 79 0
1 -102 -79 0
1 78 4 0
1 -78 -4 0
1 64 47 0
1 -64 -47 0
1 54 9 0
1 -54 -9 0
1 45 55 0
1 -45 -55 0
1 105 98 0
1 -105 -98 0
1 133 50 0
1 -133 -50 0
1 65 59 0
1 -65 -59 0
1 127 23 0
1 -127 -23 0
1 32 116 0
1 -32 -116 0
1 86 31 0
1 -86 -31 0
1 99 139 0
1 -99 -139 0
1 100 134 0
1 -100 -134 0
1 19 116 0
1 -19 -116 0
1 38 121 0
1 -38 -121 0
1 24 18 0
1 -24 -18 0
1 108 84 0
1 -108 -84 0
1 29 118 0
1 -29 -118 0
1 48 84 0
1 -48 -84 0
1 57 139 0
1 -57 -139 0
1 42 15 0
1 -42 -15 0
1 100 109 0
1 -100 -109 0
1 27 90 0
1 -27 -90 0
1 106 52 0
1 -106 -52 0
1 95 15 0
1 -95 -15 0
1 123 64 0
1 -123 -64 0
1 87 20 0
1 -87 -20 0
1 94 22 0
1 -94 -22 0
1 135 139 0
1 -135 -139 0
1 25 101 0
1 -25 -101 0
1 68 118 0
1 -68 -118 0
1 77 116 0
1 -77 -116 0
1 61 110 0
1 -61 -110 0
1 41 19 0
1 -41 -19 0
1 92 75 0
1 -92 -75 0
1 109 8 0
1 -109 -8 0
1 12 51 0
1 -12 -51 0
1 117 139 0
1 -117 -139 0
1 24 2 0
1 -24 -2 0
1 137 8 0
1 -137 -8 0
1 35 9 0
1 -35 -9 0
1 96 76 0
1 -96 -76 0
1 58 50 0
1 -58 -50 0
1 25 15 0
1 -25 -15 0
1 13 11 0
1 -13 -11 0
1 122 33 0
1 -122 -33 0
1 93 19 0
1 -93 -19 0
1 25 132 0
1 -25 -132 0
1 111 37 0
1 -111 -37 0
1 7 85 0
1 -7 -85 0
1 72 103 0
1 -72 -103 0
1 4 98 0
1 -4 -98 0
1 65 75 0
1 -65 -75 0
1 28 53 0
1 -28 -53 0
1 18 79 0
1 -18 -79 0
1 77 30 0
1 -77 -30 0
1 39 118 0
1 -39 -118 0
1 5 140 0
1 -5 -140 0
1 101 16 0
1 -101 -16 0
1 86 134 0
1 -86 -134 0
1 95 133 0
1 -95 -133 0
1 42 116 0
1 -42 -116 0
1 96 91 0
1 -96 -91 0
1 34 33 0
1 -34 -33 0
1 45 37 0
1 -45 -37 0
1 54 116 0
1 -54 -116 0
1 92 39 0
1 -92 -39 0
1 87 113 0
1 -87 -113 0
1 131 6 0
1 -131 -6 0
1 111 137 0
1 -111 -137 0
1 89 73 0
1 -89 -73 0
1 5 14 0
1 -5 -14 0
1 98 20 0
1 -98 -20 0
1 120 20 0
1 -120 -20 0
1 5 110 0
1 -5 -110 0
1 55 73 0
1 -55 -73 0
1 26 97 0
1 -26 -97 0
1 27 36 0
1 -27 -36 0
1 82 140 0
1 -82 -140 0
1 111 96 0
1 -111 -96 0
1 81 91 0
1 -81 -91 0
1 35 58 0
1 -35 -58 0
1 125 1 0
1 -125 -1 0
1 67 104 0
1 -67 -104 0
1 60 121 0
1 -60 -121 0
1 31 119 0
1 -31 -119 0
1 83 88 0
1 -83 -88 0
1 27 110 0
1 -27 -110 0
1 118 80 0
1 -118 -80 0
1 132 15 0
1 -132 -15 0
1 74 8 0
1 -74 -8 0
1 71 93 0
1 -71 -93 0
1 93 14 0
1 -93 -14 0
1 84 17 0
1 -84 -17 0
1 117 85 0
1 -117 -85 0
1 40 124 0
1 -40 -124 0
1 125 70 0
1 -125 -70 0
1 23 33 0
1 -23 -33 0
1 28 88 0
1 -28 -88 0
1 11 50 0
1 -11 -50 0
1 128 115 0
1 -128 -115 0
1 12 25 0
1 -12 -25 0
1 29 35 0
1 -29 -35 0
1 78 137 0
1 -78 -137 0
1 118 2 0
1 -118 -2 0
1 42 100 0
1 -42 -100 0
1 109 16 0
1 -109 -16 0
1 63 119 0
1 -63 -119 0
1 31 131 0
1 -31 -131 0
1 105 97 0
1 -105 -97 0
1 108 42 0
1 -108 -42 0
1 129 3 0
1 -129 -3 0
1 3 103 0
1 -3 -103 0
1 26 132 0
1 -26 -132 0
1 77 47 0
1 -77 -47 0
1 87 84 0
1 -87 -84 0
1 13 113 0
1 -13 -113 0
1 86 89 0
1 -86 -89 0
1 42 31 0
1 -42 -31 0
1 93 57 0
1 -93 -57 0
1 115 109 0
1 -115 -109 0
1 76 34 0
1 -76 -34 0
1 135 131 0
1 -135 -131 0
1 101 19 0
1 -101 -19 0
1 21 73 0
1 -21 -73 0
1 18 91 0
1 -18 -91 0
1 104 9 0
1 -104 -9 0
1 96 108 0
1 -96 -108 0
1 58 103 0
1 -58 -103 0
1 65 120 0
1 -65 -120 0
1 108 10 0
1 -108 -10 0
1 44 19 0
1 -44 -19 0
1 12 27 0
1 -12 -27 0
1 7 36 0
1 -7 -36 0
1 65 52 0
1 -65 -52 0
1 3 15 0
1 -3 -15 0
1 54 85 0
1 -54 -85 0
1 99 37 0
1 -99 -37 0
1 106 89 0
1 -106 -89 0
1 133 47 0
1 -133 -47 0
1 22 135 0
1 -22 -135 0
1 32 79 0
1 -32 -79 0
1 3 112 0
1 -3 -112 0
1 43 131 0
1 -43 -131 0
1 22 19 0
1 -22 -19 0
1 75 139 0
1 -75 -139 0
1 40 85 0
1 -40 -85 0
1 55 54 0
1 -55 -54 0
1 61 2 0
1 -61 -2 0
1 86 63 0
1 -86 -63 0
1 3 113 0
1 -3 -113 0
1 3 5 0
1 -3 -5 0
1 40 33 0
1 -40 -33 0
1 135 33 0
1 -135 -33 0
1 70 2 0
1 -70 -2 0
1 122 43 0
1 -122 -43 0
1 104 20 0
1 -104 -20 0
1 120 4 0
1 -120 -4 0
1 78 136 0
1 -78 -136 0
1 100 112 0
1 -100 -112 0
1 65 92 0
1 -65 -92 0
1 134 83 0
1 -134 -83 0
1 12 122 0
1 -12 -122 0
1 4 73 0
1 -4 -73 0
1 124 122 0
1 -124 -122 0
1 77 121 0
1 -77 -121 0
1 90 26 0
1 -90 -26 0
1 80 69 0
1 -80 -69 0
1 31 67 0
1 -31 -67 0
1 131 50 0
1 -131 -50 0
1 63 14 0
1 -63 -14 0
1 26 52 0
1 -26 -52 0
1 44 87 0
1 -44 -87 0
1 41 74 0
1 -41 -74 0
1 134 139 0
1 -134 -139 0
1 52 11 0
1 -52 -11 0
1 126 97 0
1 -126 -97 0
1 90 120 0
1 -90 -120 0
1 92 58 0
1 -92 -58 0
1 27 50 0
1 -27 -50 0
1 120 61 0
1 -120 -61 0
1 52 47 0
1 -52 -47 0
1 106 10 0
1 -106 -10 0
1 53 112 0
1 -53 -112 0
1 57 140 0
1 -57 -140 0
1 1 81 0
1 -1 -81 0
1 57 8 0
1 -57 -8 0
1 77 55 0
1 -77 -55 0
1 94 65 0
1 -94 -65 0
1 140 138 0
1 -140 -138 0
1 53 85 0
1 -53 -85 0
1 13 45 0
1 -13 -45 0
1 31 9 0
1 -31 -9 0
1 121 56 0
1 -121 -56 0
1 114 60 0
1 -114 -60 0
1 41 2 0
1 -41 -2 0
1 64 14 0
1 -64 -14 0
1 111 118 0
1 -111 -118 0
1 122 139 0
1 -122 -139 0
1 104 33 0
1 -104 -33 0
1 96 52 0
1 -96 -52 0
1 47 130 0
1 -47 -130 0
1 71 100 0
1 -71 -100 0
1 108 100 0
1 -108 -100 0
1 82 70 0
1 -82 -70 0
1 3 35 0
1 -3 -35 0
1 19 69 0
1 -19 -69 0
1 118 109 0
1 -118 -109 0
1 28 99 0
1 -28 -99 0
1 42 34 0
1 -42 -34 0
1 3 99 0
1 -3 -99 0
1 28 131 0
1 -28 -131 0
1 78 8 0
1 -78 -8 0
1 37 103 0
1 -37 -103 0
1 40 52 0
1 -40 -52 0
1 4 80 0
1 -4 -80 0
1 111 5 0
1 -111 -5 0
1 102 66 0
1 -102 -66 0
1 94 26 0
1 -94 -26 0
1 135 107 0
1 -135 -107 0
1 27 34 0
1 -27 -34 0
1 127 120 0
1 -127 -120 0
1 137 66 0
1 -137 -66 0
1 93 119 0
1 -93 -119 0
1 72 131 0
1 -72 -131 0
1 7 97 0
1 -7 -97 0
1 92 9 0
1 -92 -9 0
1 25 19 0
1 -25 -19 0
1 48 139 0
1 -48 -139 0
1 74 47 0
1 -74 -47 0
1 27 82 0
1 -27 -82 0
1 74 46 0
1 -74 -46 0
1 108 67 0
1 -108 -67 0
1 27 135 0
1 -27 -135 0
1 45 133 0
1 -45 -133 0
1 127 105 0
1 -127 -105 0
1 61 122 0
1 -61 -122 0
1 13 64 0
1 -13 -64 0
1 40 76 0
1 -40 -76 0
1 55 17 0
1 -55 -17 0
1 68 126 0
1 -68 -126 0
1 30 17 0
1 -30 -17 0
1 94 90 0
1 -94 -90 0
1 21 110 0
1 -21 -110 0
1 62 88 0
1 -62 -88 0
1 44 76 0
1 -44 -76 0
1 43 15 0
1 -43 -15 0
1 75 69 0
1 -75 -69 0
1 135 136 0
1 -135 -136 0
1 120 33 0
1 -120 -33 0
1 62 126 0
1 -62 -126 0
1 128 33 0
1 -128 -33 0
1 78 84 0
1 -78 -84 0
1 96 64 0
1 -96 -64 0
1 51 18 0
1 -51 -18 0
1 71 38 0
1 -71 -38 0
1 124 59 0
1 -124 -59 0
1 59 56 0
1 -59 -56 0
1 10 2 0
1 -10 -2 0
1 68 70 0
1 -68 -70 0
1 124 2 0
1 -124 -2 0
1 44 32 0
1 -44 -32 0
1 45 54 0
1 -45 -54 0
1 32 110 0
1 -32 -110 0
1 49 59 0
1 -49 -59 0
1 4 33 0
1 -4 -33 0
1 68 78 0
1 -68 -78 0
1 67 53 0
1 -67 -53 0
1 45 20 0
1 -45 -20 0
1 59 50 0
1 -59 -50 0
1 125 26 0
1 -125 -26 0
1 117 9 0
1 -117 -9 0
1 71 126 0
1 -71 -126 0
1 102 14 0
1 -102 -14 0
1 70 33 0
1 -70 -33 0
1 125 118 0
1 -125 -118 0
1 114 54 0
1 -114 -54 0
1 45 50 0
1 -45 -50 0
1 3 88 0
1 -3 -88 0
1 1 118 0
1 -1 -118 0
1 29 51 0
1 -29 -51 0
1 10 83 0
1 -10 -83 0
1 43 54 0
1 -43 -54 0
1 114 13 0
1 -114 -13 0
1 123 18 0
1 -123 -18 0
1 28 57 0
1 -28 -57 0
1 52 138 0
1 -52 -138 0
1 64 67 0
1 -64 -67 0
1 102 118 0
1 -102 -118 0
1 87 75 0
1 -87 -75 0
1 47 112 0
1 -47 -112 0
1 123 127 0
1 -123 -127 0
1 28 17 0
1 -28 -17 0
1 13 20 0
1 -13 -20 0
1 93 75 0
1 -93 -75 0
1 5 33 0
1 -5 -33 0
1 87 105 0
1 -87 -105 0
1 51 6 0
1 -51 -6 0
1 108 135 0
1 -108 -135 0
1 106 80 0
1 -106 -80 0
1 114 3 0
1 -114 -3 0
1 90 107 0
1 -90 -107 0
1 72 64 0
1 -72 -64 0
1 1 41 0
1 -1 -41 0
1 95 46 0
1 -95 -46 0
1 96 126 0
1 -96 -126 0
1 34 30 0
1 -34 -30 0
1 86 54 0
1 -86 -54 0
1 57 97 0
1 -57 -97 0
1 18 110 0
1 -18 -110 0
1 94 74 0
1 -94 -74 0
1 68 3 0
1 -68 -3 0
1 1 43 0
1 -1 -43 0
1 67 92 0
1 -67 -92 0
1 114 94 0
1 -114 -94 0
1 117 39 0
1 -117 -39 0
1 77 140 0
1 -77 -140 0
1 66 6 0
1 -66 -6 0
1 42 107 0
1 -42 -107 0
1 5 69 0
1 -5 -69 0
1 40 88 0
1 -40 -88 0
1 93 92 0
1 -93 -92 0
1 13 5 0
1 -13 -5 0
1 42 45 0
1 -42 -45 0
1 84 20 0
1 -84 -20 0
1 13 102 0
1 -13 -102 0
1 1 140 0
1 -1 -140 0
1 138 118 0
1 -138 -118 0
1 12 49 0
1 -12 -49 0
1 35 116 0
1 -35 -116 0
1 129 79 0
1 -129 -79 0
1 135 8 0
1 -135 -8 0
1 72 92 0
1 -72 -92 0
1 27 140 0
1 -27 -140 0
1 13 97 0
1 -13 -97 0
1 29 59 0
1 -29 -59 0
1 121 130 0
1 -121 -130 0
1 63 130 0
1 -63 -130 0
1 4 79 0
1 -4 -79 0
1 124 109 0
1 -124 -109 0
1 62 109 0
1 -62 -109 0
1 49 92 0
1 -49 -92 0
1 27 109 0
1 -27 -109 0
1 3 116 0
1 -3 -116 0
1 99 136 0
1 -99 -136 0
1 53 132 0
1 -53 -132 0
1 57 16 0
1 -57 -16 0
1 26 81 0
1 -26 -81 0
1 9 17 0
1 -9 -17 0
1 23 58 0
1 -23 -58 0
1 122 131 0
1 -122 -131 0
1 7 33 0
1 -7 -33 0
1 80 112 0
1 -80 -112 0
1 128 98 0
1 -128 -98 0
1 106 92 0
1 -106 -92 0
1 1 109 0
1 -1 -109 0
1 71 5 0
1 -71 -5 0
1 92 52 0
1 -92 -52 0
1 122 97 0
1 -122 -97 0
1 74 11 0
1 -74 -11 0
1 134 103 0
1 -134 -103 0
1 72 74 0
1 -72 -74 0
1 58 97 0
1 -58 -97 0
1 115 134 0
1 -115 -134 0
1 3 18 0
1 -3 -18 0
1 50 139 0
1 -50 -139 0
1 53 58 0
1 -53 -58 0
1 112 37 0
1 -112 -37 0
1 78 105 0
1 -78 -105 0
1 95 82 0
1 -95 -82 0
1 100 10 0
1 -100 -10 0
1 90 93 0
1 -90 -93 0
